
n_res = 6;
rcap = [18, 20, 19, 17, 764, 736];
rtype = [1, 1, 1, 1, 2, 2];
n_tasks = 50;
modes =  [{1, 2, 3, 4, 5, 6}, {7, 8, 9, 10, 11, 12}, {13, 14, 15, 16, 17, 18}, {19, 20, 21, 22, 23, 24}, {25, 26, 27, 28, 29, 30}, {31, 32, 33, 34, 35, 36}, {37, 38, 39, 40, 41, 42}, {43, 44, 45, 46, 47, 48}, {49, 50, 51, 52, 53, 54}, {55, 56, 57, 58, 59, 60}, {61, 62, 63, 64, 65, 66}, {67, 68, 69, 70, 71, 72}, {73, 74, 75, 76, 77, 78}, {79, 80, 81, 82, 83, 84}, {85, 86, 87, 88, 89, 90}, {91, 92, 93, 94, 95, 96}, {97, 98, 99, 100, 101, 102}, {103, 104, 105, 106, 107, 108}, {109, 110, 111, 112, 113, 114}, {115, 116, 117, 118, 119, 120}, {121, 122, 123, 124, 125, 126}, {127, 128, 129, 130, 131, 132}, {133, 134, 135, 136, 137, 138}, {139, 140, 141, 142, 143, 144}, {145, 146, 147, 148, 149, 150}, {151, 152, 153, 154, 155, 156}, {157, 158, 159, 160, 161, 162}, {163, 164, 165, 166, 167, 168}, {169, 170, 171, 172, 173, 174}, {175, 176, 177, 178, 179, 180}, {181, 182, 183, 184, 185, 186}, {187, 188, 189, 190, 191, 192}, {193, 194, 195, 196, 197, 198}, {199, 200, 201, 202, 203, 204}, {205, 206, 207, 208, 209, 210}, {211, 212, 213, 214, 215, 216}, {217, 218, 219, 220, 221, 222}, {223, 224, 225, 226, 227, 228}, {229, 230, 231, 232, 233, 234}, {235, 236, 237, 238, 239, 240}, {241, 242, 243, 244, 245, 246}, {247, 248, 249, 250, 251, 252}, {253, 254, 255, 256, 257, 258}, {259, 260, 261, 262, 263, 264}, {265, 266, 267, 268, 269, 270}, {271, 272, 273, 274, 275, 276}, {277, 278, 279, 280, 281, 282}, {283, 284, 285, 286, 287, 288}, {289, 290, 291, 292, 293, 294}, {295, 296, 297, 298, 299, 300}];
succ =  [{48, 28, 27, 26, 24, 21, 17, 14}, {47, 34, 33, 29, 21, 15, 14}, {49, 46, 45, 34, 33, 32, 29, 20, 15}, {49, 44, 42, 37, 31, 30, 23, 13}, {48, 35, 34, 32, 26, 23, 14}, {47, 45, 41, 38, 32, 27, 26, 23}, {48, 47, 45, 43, 42, 41, 40, 39, 38, 34, 33, 32}, {48, 47, 44, 39, 33, 32, 17}, {49, 48, 46, 45, 44, 41, 38, 37, 23}, {49, 47, 45, 44, 40, 39, 38, 32, 26}, {47, 45, 44, 42, 41, 40, 38, 37, 31}, {47, 45, 43, 42, 41, 38, 33, 31}, {48, 40, 38, 32, 28, 27}, {46, 45, 43, 41, 40, 39, 38, 37, 36}, {44, 42, 41, 37, 23}, {47, 46, 44, 43, 26}, {46, 43, 41, 40, 38, 37, 31}, {49, 48, 38, 26}, {44, 42, 40, 39, 38, 37, 36}, {47, 41, 40, 38, 37, 36}, {49, 42, 39, 38, 32}, {47, 38, 33, 31}, {43, 40, 39, 36}, {47, 45, 44, 38}, {45, 39, 37, 36}, {42, 37, 31}, {46, 39, 36}, {46, 43, 36}, {44, 42, 37}, {45, 41, 36}, {36}, {36}, {37}, {44}, {41}, {}, {}, {}, {}, {}, {}, {}, {}, {}, {}, {}, {}, {}, {}, {}];
n_opt = 300;
dur = [1, 2, 5, 6, 17, 20, 2, 12, 14, 20, 24, 26, 4, 5, 7, 12, 14, 25, 4, 13, 15, 18, 20, 27, 1, 2, 9, 25, 29, 30, 5, 12, 16, 19, 20, 28, 2, 9, 17, 19, 23, 26, 2, 3, 6, 14, 16, 25, 4, 8, 15, 21, 24, 30, 5, 12, 15, 26, 28, 30, 2, 3, 4, 6, 7, 19, 8, 14, 16, 19, 20, 29, 6, 11, 16, 18, 21, 22, 14, 19, 25, 26, 27, 29, 1, 5, 21, 24, 28, 29, 3, 7, 11, 13, 21, 27, 11, 19, 20, 26, 29, 30, 1, 17, 21, 26, 27, 28, 8, 15, 21, 22, 29, 30, 3, 4, 7, 8, 17, 29, 6, 7, 19, 22, 26, 27, 2, 4, 9, 10, 13, 29, 1, 2, 5, 8, 11, 22, 2, 4, 16, 19, 21, 22, 2, 10, 13, 20, 21, 27, 19, 20, 25, 26, 27, 28, 4, 10, 21, 26, 27, 29, 18, 19, 21, 22, 25, 28, 13, 18, 19, 20, 23, 26, 2, 3, 24, 25, 26, 27, 2, 4, 6, 7, 16, 26, 10, 11, 12, 22, 24, 25, 7, 11, 15, 17, 20, 23, 8, 9, 17, 20, 22, 29, 8, 9, 15, 16, 25, 26, 2, 6, 12, 14, 15, 22, 3, 6, 15, 16, 26, 27, 7, 8, 9, 10, 26, 29, 2, 3, 18, 21, 27, 29, 4, 5, 13, 19, 24, 29, 12, 17, 18, 19, 21, 27, 8, 9, 25, 27, 28, 30, 4, 9, 11, 13, 18, 26, 2, 5, 8, 12, 23, 30, 16, 17, 20, 21, 22, 28, 1, 9, 16, 18, 22, 23, 1, 11, 18, 21, 24, 30, 8, 19, 24, 25, 28, 30, 7, 9, 17, 18, 23, 26, 7, 11, 12, 13, 26, 27];
rreq = [|2, 1, 1, 1, 1, 1, 5, 4, 4, 4, 4, 4, 5, 4, 4, 4, 4, 4, 3, 3, 3, 3, 3, 3, 1, 1, 1, 1, 1, 1, 3, 3, 3, 2, 2, 2, 3, 3, 3, 3, 3, 3, 4, 4, 4, 4, 4, 4, 4, 3, 3, 2, 2, 2, 4, 4, 4, 4, 3, 3, 4, 3, 3, 3, 3, 3, 1, 1, 1, 1, 1, 1, 4, 3, 3, 3, 3, 3, 1, 1, 1, 1, 1, 1, 4, 3, 3, 3, 2, 2, 5, 4, 4, 3, 2, 2, 5, 4, 4, 4, 4, 4, 3, 3, 3, 3, 3, 3, 3, 3, 3, 3, 3, 3, 2, 1, 1, 1, 1, 1, 3, 3, 3, 3, 2, 2, 4, 3, 3, 2, 2, 2, 2, 1, 1, 1, 1, 1, 5, 4, 4, 3, 3, 2, 2, 2, 2, 2, 2, 2, 3, 2, 2, 2, 2, 2, 5, 4, 4, 4, 4, 4, 1, 1, 1, 1, 1, 1, 4, 4, 4, 4, 4, 4, 2, 2, 2, 2, 2, 2, 2, 2, 2, 2, 2, 2, 1, 1, 1, 1, 1, 1, 3, 2, 2, 2, 2, 2, 4, 3, 3, 2, 2, 2, 4, 4, 4, 4, 3, 3, 4, 4, 3, 3, 3, 2, 5, 5, 5, 5, 5, 5, 2, 2, 2, 2, 2, 2, 4, 3, 3, 3, 2, 1, 4, 4, 4, 4, 4, 4, 4, 4, 3, 2, 1, 1, 5, 4, 4, 4, 4, 4, 5, 4, 4, 3, 3, 3, 2, 1, 1, 1, 1, 1, 5, 4, 4, 4, 4, 4, 1, 1, 1, 1, 1, 1, 3, 3, 3, 2, 2, 1, 3, 3, 3, 2, 2, 2, 3, 2, 2, 2, 1, 1, 1, 1, 1, 1, 1, 1
 |2, 2, 2, 2, 2, 2, 5, 4, 3, 3, 2, 2, 3, 3, 3, 3, 3, 3, 4, 4, 3, 2, 2, 1, 5, 4, 3, 3, 2, 2, 2, 1, 1, 1, 1, 1, 5, 4, 4, 4, 4, 4, 4, 4, 4, 4, 4, 4, 5, 5, 5, 5, 5, 5, 3, 2, 2, 1, 1, 1, 5, 4, 3, 3, 2, 2, 3, 2, 2, 2, 2, 2, 5, 5, 5, 5, 5, 5, 4, 3, 3, 2, 2, 1, 2, 1, 1, 1, 1, 1, 1, 1, 1, 1, 1, 1, 2, 2, 2, 2, 2, 2, 2, 2, 2, 2, 2, 2, 3, 3, 3, 3, 3, 3, 2, 1, 1, 1, 1, 1, 4, 4, 4, 4, 4, 4, 4, 3, 3, 2, 2, 2, 5, 4, 4, 4, 3, 3, 2, 1, 1, 1, 1, 1, 4, 4, 4, 4, 4, 4, 3, 3, 3, 3, 3, 3, 5, 5, 5, 5, 5, 5, 1, 1, 1, 1, 1, 1, 3, 2, 2, 2, 2, 2, 1, 1, 1, 1, 1, 1, 4, 3, 3, 2, 2, 2, 5, 5, 5, 5, 5, 5, 3, 2, 2, 2, 2, 2, 4, 3, 3, 3, 3, 3, 4, 3, 3, 3, 3, 3, 4, 3, 2, 2, 2, 1, 4, 3, 3, 3, 1, 1, 4, 4, 4, 4, 3, 3, 4, 4, 4, 3, 3, 3, 3, 3, 3, 2, 2, 2, 3, 2, 2, 2, 2, 2, 4, 4, 4, 4, 4, 4, 4, 3, 3, 3, 3, 3, 2, 1, 1, 1, 1, 1, 4, 4, 3, 2, 1, 1, 2, 2, 2, 2, 2, 2, 5, 4, 3, 3, 2, 1, 5, 5, 5, 5, 5, 5, 3, 2, 2, 2, 2, 2, 5, 5, 5, 5, 5, 5
 |4, 3, 3, 3, 2, 1, 3, 3, 3, 3, 2, 2, 2, 2, 2, 2, 2, 2, 4, 3, 3, 2, 2, 2, 3, 3, 3, 3, 3, 3, 2, 2, 2, 2, 1, 1, 5, 5, 5, 5, 5, 5, 5, 4, 3, 3, 3, 2, 4, 4, 4, 4, 4, 4, 1, 1, 1, 1, 1, 1, 3, 2, 2, 2, 2, 2, 5, 4, 4, 3, 2, 2, 5, 3, 3, 2, 1, 1, 2, 2, 2, 2, 1, 1, 2, 2, 2, 2, 1, 1, 4, 3, 3, 2, 1, 1, 4, 4, 4, 4, 4, 4, 3, 3, 2, 2, 2, 1, 5, 5, 5, 5, 5, 5, 3, 3, 3, 2, 2, 2, 4, 3, 3, 2, 2, 1, 4, 4, 4, 4, 4, 4, 4, 4, 4, 4, 4, 4, 3, 3, 3, 3, 3, 3, 3, 3, 3, 2, 2, 2, 4, 4, 4, 4, 4, 4, 2, 2, 2, 2, 2, 2, 3, 3, 3, 3, 3, 3, 5, 4, 4, 3, 3, 3, 2, 2, 2, 2, 2, 2, 3, 3, 3, 2, 2, 2, 4, 3, 3, 3, 3, 3, 2, 2, 2, 2, 1, 1, 5, 5, 5, 5, 5, 5, 2, 2, 2, 2, 2, 2, 1, 1, 1, 1, 1, 1, 5, 4, 4, 4, 4, 4, 3, 3, 3, 3, 2, 2, 4, 3, 3, 2, 2, 1, 5, 4, 3, 3, 2, 1, 5, 5, 5, 5, 5, 5, 4, 4, 4, 4, 4, 4, 2, 2, 2, 2, 2, 2, 2, 2, 2, 2, 2, 2, 5, 4, 4, 4, 3, 3, 1, 1, 1, 1, 1, 1, 5, 4, 4, 4, 4, 4, 4, 3, 3, 3, 2, 2, 3, 3, 3, 3, 3, 3, 1, 1, 1, 1, 1, 1
 |4, 4, 4, 4, 3, 3, 3, 3, 3, 3, 3, 3, 4, 4, 3, 3, 3, 2, 4, 3, 3, 3, 3, 3, 3, 3, 3, 2, 2, 2, 3, 2, 2, 2, 2, 2, 1, 1, 1, 1, 1, 1, 3, 2, 2, 2, 2, 2, 3, 3, 3, 3, 3, 3, 4, 4, 4, 3, 3, 3, 5, 4, 4, 4, 4, 4, 3, 3, 3, 3, 3, 3, 4, 4, 3, 2, 2, 1, 5, 4, 4, 4, 3, 3, 2, 2, 2, 2, 2, 2, 2, 2, 2, 2, 2, 2, 4, 4, 4, 4, 4, 4, 2, 2, 2, 2, 2, 2, 3, 3, 3, 2, 2, 2, 3, 3, 3, 2, 2, 1, 3, 3, 3, 3, 3, 3, 1, 1, 1, 1, 1, 1, 4, 3, 3, 3, 3, 3, 3, 2, 2, 1, 1, 1, 2, 1, 1, 1, 1, 1, 4, 4, 3, 2, 2, 1, 5, 4, 4, 3, 3, 2, 4, 3, 3, 2, 2, 2, 3, 3, 3, 3, 3, 3, 3, 2, 2, 2, 2, 2, 5, 5, 5, 5, 5, 5, 2, 2, 2, 2, 2, 2, 4, 3, 3, 3, 1, 1, 3, 2, 2, 1, 1, 1, 3, 3, 3, 3, 3, 3, 4, 3, 2, 2, 1, 1, 3, 3, 3, 3, 2, 2, 3, 3, 3, 3, 3, 3, 5, 4, 3, 3, 2, 2, 1, 1, 1, 1, 1, 1, 1, 1, 1, 1, 1, 1, 5, 4, 4, 4, 4, 4, 5, 4, 3, 3, 3, 2, 1, 1, 1, 1, 1, 1, 3, 2, 2, 2, 2, 2, 3, 2, 2, 2, 1, 1, 5, 3, 3, 3, 2, 1, 2, 1, 1, 1, 1, 1, 5, 5, 5, 5, 5, 5, 5, 4, 4, 3, 3, 2
 |17, 17, 17, 17, 16, 16, 23, 23, 22, 21, 19, 18, 25, 20, 18, 12, 11, 7, 29, 24, 19, 17, 14, 7, 20, 15, 13, 10, 7, 2, 8, 7, 5, 4, 3, 1, 28, 27, 27, 26, 26, 26, 14, 14, 10, 8, 8, 6, 26, 24, 22, 22, 21, 19, 18, 17, 17, 16, 16, 16, 17, 12, 11, 8, 4, 2, 29, 28, 26, 24, 23, 22, 19, 17, 15, 12, 9, 8, 18, 17, 17, 17, 16, 16, 13, 10, 10, 9, 8, 6, 8, 7, 6, 6, 5, 4, 16, 13, 12, 10, 7, 6, 27, 22, 17, 13, 11, 9, 23, 21, 19, 13, 12, 8, 29, 25, 23, 20, 20, 16, 28, 23, 20, 19, 16, 9, 22, 20, 18, 14, 13, 10, 25, 25, 25, 25, 25, 25, 22, 21, 20, 19, 19, 18, 17, 17, 15, 13, 11, 7, 16, 16, 15, 14, 12, 11, 28, 27, 27, 25, 25, 23, 21, 20, 19, 18, 17, 17, 14, 13, 12, 12, 11, 11, 11, 11, 11, 11, 11, 11, 26, 23, 21, 19, 19, 17, 10, 8, 6, 6, 5, 4, 29, 22, 16, 10, 10, 3, 23, 19, 17, 15, 15, 13, 23, 21, 18, 15, 14, 12, 26, 24, 21, 16, 13, 9, 21, 17, 17, 12, 9, 5, 21, 17, 13, 11, 10, 7, 21, 19, 17, 13, 11, 8, 9, 9, 8, 7, 7, 6, 26, 24, 22, 22, 20, 20, 11, 10, 9, 8, 7, 6, 18, 17, 12, 10, 8, 2, 9, 6, 5, 4, 4, 3, 26, 25, 25, 23, 22, 19, 27, 26, 24, 23, 22, 21, 27, 25, 23, 21, 20, 18, 5, 5, 5, 5, 5, 5, 8, 7, 6, 6, 5, 4, 7, 7, 7, 6, 5, 5
 |16, 15, 12, 11, 9, 6, 15, 11, 10, 8, 6, 5, 24, 24, 22, 21, 21, 19, 22, 19, 17, 17, 15, 14, 5, 4, 4, 4, 2, 2, 20, 15, 14, 11, 10, 7, 25, 23, 22, 22, 20, 19, 9, 9, 9, 8, 7, 7, 21, 19, 18, 17, 16, 16, 18, 17, 16, 13, 12, 10, 16, 16, 16, 15, 14, 14, 14, 12, 11, 10, 9, 8, 22, 22, 21, 19, 19, 18, 29, 29, 28, 28, 28, 28, 21, 19, 18, 19, 18, 17, 11, 9, 8, 6, 4, 3, 18, 18, 18, 17, 17, 16, 26, 25, 25, 24, 24, 24, 23, 23, 18, 14, 9, 7, 4, 4, 4, 4, 3, 4, 19, 19, 17, 17, 15, 15, 25, 23, 19, 16, 13, 11, 22, 20, 16, 14, 8, 5, 21, 20, 17, 15, 14, 10, 24, 23, 22, 22, 21, 21, 10, 8, 7, 6, 3, 3, 29, 27, 25, 21, 19, 19, 15, 14, 12, 10, 9, 8, 13, 12, 11, 10, 8, 7, 26, 23, 17, 15, 12, 4, 11, 11, 11, 10, 9, 9, 11, 10, 9, 8, 8, 7, 10, 10, 9, 8, 7, 7, 25, 24, 24, 24, 23, 24, 24, 21, 18, 14, 11, 6, 24, 23, 23, 22, 22, 22, 5, 4, 3, 4, 3, 3, 19, 16, 16, 12, 9, 7, 12, 10, 9, 9, 7, 6, 12, 11, 10, 8, 8, 7, 13, 11, 11, 9, 9, 8, 26, 24, 18, 17, 9, 8, 22, 20, 18, 15, 11, 8, 20, 17, 12, 7, 6, 4, 8, 7, 7, 6, 4, 4, 28, 26, 26, 22, 22, 20, 21, 20, 18, 14, 14, 11, 27, 27, 26, 27, 27, 26, 18, 14, 11, 8, 4, 2, 18, 17, 16, 16, 16, 16|];